\Problem name: 

Minimize
OBJROW: var(0) + var(1) + var(2) + var(3) + var(4) + var(5) + var(6) + var(7) + var(8) + var(9)
 + var(10)
Subject To
constr(0):  var(11) + var(12) + var(13) + var(14) + var(15) + var(16) + var(17) + var(18) + var(19) + var(20)
 + var(21) = 1
constr(1):  var(22) + var(23) + var(24) + var(25) + var(26) + var(27) + var(28) + var(29) + var(30) + var(31)
 + var(32) = 1
constr(2):  var(33) + var(34) + var(35) + var(36) + var(37) + var(38) + var(39) + var(40) + var(41) + var(42)
 + var(43) = 1
constr(3):  var(44) + var(45) + var(46) + var(47) + var(48) + var(49) + var(50) + var(51) + var(52) + var(53)
 + var(54) = 1
constr(4):  var(55) + var(56) + var(57) + var(58) + var(59) + var(60) + var(61) + var(62) + var(63) + var(64)
 + var(65) = 1
constr(5):  var(66) + var(67) + var(68) + var(69) + var(70) + var(71) + var(72) + var(73) + var(74) + var(75)
 + var(76) = 1
constr(6):  var(77) + var(78) + var(79) + var(80) + var(81) + var(82) + var(83) + var(84) + var(85) + var(86)
 + var(87) = 1
constr(7):  var(88) + var(89) + var(90) + var(91) + var(92) + var(93) + var(94) + var(95) + var(96) + var(97)
 + var(98) = 1
constr(8):  var(99) + var(100) + var(101) + var(102) + var(103) + var(104) + var(105) + var(106) + var(107) + var(108)
 + var(109) = 1
constr(9):  var(110) + var(111) + var(112) + var(113) + var(114) + var(115) + var(116) + var(117) + var(118) + var(119)
 + var(120) = 1
constr(10):  var(121) + var(122) + var(123) + var(124) + var(125) + var(126) + var(127) + var(128) + var(129) + var(130)
 + var(131) = 1
constr(11):  - var(0) + var(11) + var(22) <= -0
constr(12):  - var(1) + var(12) + var(23) <= -0
constr(13):  - var(2) + var(13) + var(24) <= -0
constr(14):  - var(3) + var(14) + var(25) <= -0
constr(15):  - var(4) + var(15) + var(26) <= -0
constr(16):  - var(5) + var(16) + var(27) <= -0
constr(17):  - var(6) + var(17) + var(28) <= -0
constr(18):  - var(7) + var(18) + var(29) <= -0
constr(19):  - var(8) + var(19) + var(30) <= -0
constr(20):  - var(9) + var(20) + var(31) <= -0
constr(21):  - var(10) + var(21) + var(32) <= -0
constr(22):  - var(0) + var(11) + var(44) <= -0
constr(23):  - var(1) + var(12) + var(45) <= -0
constr(24):  - var(2) + var(13) + var(46) <= -0
constr(25):  - var(3) + var(14) + var(47) <= -0
constr(26):  - var(4) + var(15) + var(48) <= -0
constr(27):  - var(5) + var(16) + var(49) <= -0
constr(28):  - var(6) + var(17) + var(50) <= -0
constr(29):  - var(7) + var(18) + var(51) <= -0
constr(30):  - var(8) + var(19) + var(52) <= -0
constr(31):  - var(9) + var(20) + var(53) <= -0
constr(32):  - var(10) + var(21) + var(54) <= -0
constr(33):  - var(0) + var(11) + var(77) <= -0
constr(34):  - var(1) + var(12) + var(78) <= -0
constr(35):  - var(2) + var(13) + var(79) <= -0
constr(36):  - var(3) + var(14) + var(80) <= -0
constr(37):  - var(4) + var(15) + var(81) <= -0
constr(38):  - var(5) + var(16) + var(82) <= -0
constr(39):  - var(6) + var(17) + var(83) <= -0
constr(40):  - var(7) + var(18) + var(84) <= -0
constr(41):  - var(8) + var(19) + var(85) <= -0
constr(42):  - var(9) + var(20) + var(86) <= -0
constr(43):  - var(10) + var(21) + var(87) <= -0
constr(44):  - var(0) + var(11) + var(99) <= -0
constr(45):  - var(1) + var(12) + var(100) <= -0
constr(46):  - var(2) + var(13) + var(101) <= -0
constr(47):  - var(3) + var(14) + var(102) <= -0
constr(48):  - var(4) + var(15) + var(103) <= -0
constr(49):  - var(5) + var(16) + var(104) <= -0
constr(50):  - var(6) + var(17) + var(105) <= -0
constr(51):  - var(7) + var(18) + var(106) <= -0
constr(52):  - var(8) + var(19) + var(107) <= -0
constr(53):  - var(9) + var(20) + var(108) <= -0
constr(54):  - var(10) + var(21) + var(109) <= -0
constr(55):  - var(0) + var(22) + var(33) <= -0
constr(56):  - var(1) + var(23) + var(34) <= -0
constr(57):  - var(2) + var(24) + var(35) <= -0
constr(58):  - var(3) + var(25) + var(36) <= -0
constr(59):  - var(4) + var(26) + var(37) <= -0
constr(60):  - var(5) + var(27) + var(38) <= -0
constr(61):  - var(6) + var(28) + var(39) <= -0
constr(62):  - var(7) + var(29) + var(40) <= -0
constr(63):  - var(8) + var(30) + var(41) <= -0
constr(64):  - var(9) + var(31) + var(42) <= -0
constr(65):  - var(10) + var(32) + var(43) <= -0
constr(66):  - var(0) + var(22) + var(66) <= -0
constr(67):  - var(1) + var(23) + var(67) <= -0
constr(68):  - var(2) + var(24) + var(68) <= -0
constr(69):  - var(3) + var(25) + var(69) <= -0
constr(70):  - var(4) + var(26) + var(70) <= -0
constr(71):  - var(5) + var(27) + var(71) <= -0
constr(72):  - var(6) + var(28) + var(72) <= -0
constr(73):  - var(7) + var(29) + var(73) <= -0
constr(74):  - var(8) + var(30) + var(74) <= -0
constr(75):  - var(9) + var(31) + var(75) <= -0
constr(76):  - var(10) + var(32) + var(76) <= -0
constr(77):  - var(0) + var(22) + var(88) <= -0
constr(78):  - var(1) + var(23) + var(89) <= -0
constr(79):  - var(2) + var(24) + var(90) <= -0
constr(80):  - var(3) + var(25) + var(91) <= -0
constr(81):  - var(4) + var(26) + var(92) <= -0
constr(82):  - var(5) + var(27) + var(93) <= -0
constr(83):  - var(6) + var(28) + var(94) <= -0
constr(84):  - var(7) + var(29) + var(95) <= -0
constr(85):  - var(8) + var(30) + var(96) <= -0
constr(86):  - var(9) + var(31) + var(97) <= -0
constr(87):  - var(10) + var(32) + var(98) <= -0
constr(88):  - var(0) + var(33) + var(55) <= -0
constr(89):  - var(1) + var(34) + var(56) <= -0
constr(90):  - var(2) + var(35) + var(57) <= -0
constr(91):  - var(3) + var(36) + var(58) <= -0
constr(92):  - var(4) + var(37) + var(59) <= -0
constr(93):  - var(5) + var(38) + var(60) <= -0
constr(94):  - var(6) + var(39) + var(61) <= -0
constr(95):  - var(7) + var(40) + var(62) <= -0
constr(96):  - var(8) + var(41) + var(63) <= -0
constr(97):  - var(9) + var(42) + var(64) <= -0
constr(98):  - var(10) + var(43) + var(65) <= -0
constr(99):  - var(0) + var(33) + var(77) <= -0
constr(100):  - var(1) + var(34) + var(78) <= -0
constr(101):  - var(2) + var(35) + var(79) <= -0
constr(102):  - var(3) + var(36) + var(80) <= -0
constr(103):  - var(4) + var(37) + var(81) <= -0
constr(104):  - var(5) + var(38) + var(82) <= -0
constr(105):  - var(6) + var(39) + var(83) <= -0
constr(106):  - var(7) + var(40) + var(84) <= -0
constr(107):  - var(8) + var(41) + var(85) <= -0
constr(108):  - var(9) + var(42) + var(86) <= -0
constr(109):  - var(10) + var(43) + var(87) <= -0
constr(110):  - var(0) + var(33) + var(110) <= -0
constr(111):  - var(1) + var(34) + var(111) <= -0
constr(112):  - var(2) + var(35) + var(112) <= -0
constr(113):  - var(3) + var(36) + var(113) <= -0
constr(114):  - var(4) + var(37) + var(114) <= -0
constr(115):  - var(5) + var(38) + var(115) <= -0
constr(116):  - var(6) + var(39) + var(116) <= -0
constr(117):  - var(7) + var(40) + var(117) <= -0
constr(118):  - var(8) + var(41) + var(118) <= -0
constr(119):  - var(9) + var(42) + var(119) <= -0
constr(120):  - var(10) + var(43) + var(120) <= -0
constr(121):  - var(0) + var(44) + var(55) <= -0
constr(122):  - var(1) + var(45) + var(56) <= -0
constr(123):  - var(2) + var(46) + var(57) <= -0
constr(124):  - var(3) + var(47) + var(58) <= -0
constr(125):  - var(4) + var(48) + var(59) <= -0
constr(126):  - var(5) + var(49) + var(60) <= -0
constr(127):  - var(6) + var(50) + var(61) <= -0
constr(128):  - var(7) + var(51) + var(62) <= -0
constr(129):  - var(8) + var(52) + var(63) <= -0
constr(130):  - var(9) + var(53) + var(64) <= -0
constr(131):  - var(10) + var(54) + var(65) <= -0
constr(132):  - var(0) + var(44) + var(66) <= -0
constr(133):  - var(1) + var(45) + var(67) <= -0
constr(134):  - var(2) + var(46) + var(68) <= -0
constr(135):  - var(3) + var(47) + var(69) <= -0
constr(136):  - var(4) + var(48) + var(70) <= -0
constr(137):  - var(5) + var(49) + var(71) <= -0
constr(138):  - var(6) + var(50) + var(72) <= -0
constr(139):  - var(7) + var(51) + var(73) <= -0
constr(140):  - var(8) + var(52) + var(74) <= -0
constr(141):  - var(9) + var(53) + var(75) <= -0
constr(142):  - var(10) + var(54) + var(76) <= -0
constr(143):  - var(0) + var(44) + var(110) <= -0
constr(144):  - var(1) + var(45) + var(111) <= -0
constr(145):  - var(2) + var(46) + var(112) <= -0
constr(146):  - var(3) + var(47) + var(113) <= -0
constr(147):  - var(4) + var(48) + var(114) <= -0
constr(148):  - var(5) + var(49) + var(115) <= -0
constr(149):  - var(6) + var(50) + var(116) <= -0
constr(150):  - var(7) + var(51) + var(117) <= -0
constr(151):  - var(8) + var(52) + var(118) <= -0
constr(152):  - var(9) + var(53) + var(119) <= -0
constr(153):  - var(10) + var(54) + var(120) <= -0
constr(154):  - var(0) + var(55) + var(88) <= -0
constr(155):  - var(1) + var(56) + var(89) <= -0
constr(156):  - var(2) + var(57) + var(90) <= -0
constr(157):  - var(3) + var(58) + var(91) <= -0
constr(158):  - var(4) + var(59) + var(92) <= -0
constr(159):  - var(5) + var(60) + var(93) <= -0
constr(160):  - var(6) + var(61) + var(94) <= -0
constr(161):  - var(7) + var(62) + var(95) <= -0
constr(162):  - var(8) + var(63) + var(96) <= -0
constr(163):  - var(9) + var(64) + var(97) <= -0
constr(164):  - var(10) + var(65) + var(98) <= -0
constr(165):  - var(0) + var(55) + var(99) <= -0
constr(166):  - var(1) + var(56) + var(100) <= -0
constr(167):  - var(2) + var(57) + var(101) <= -0
constr(168):  - var(3) + var(58) + var(102) <= -0
constr(169):  - var(4) + var(59) + var(103) <= -0
constr(170):  - var(5) + var(60) + var(104) <= -0
constr(171):  - var(6) + var(61) + var(105) <= -0
constr(172):  - var(7) + var(62) + var(106) <= -0
constr(173):  - var(8) + var(63) + var(107) <= -0
constr(174):  - var(9) + var(64) + var(108) <= -0
constr(175):  - var(10) + var(65) + var(109) <= -0
constr(176):  - var(0) + var(66) + var(121) <= -0
constr(177):  - var(1) + var(67) + var(122) <= -0
constr(178):  - var(2) + var(68) + var(123) <= -0
constr(179):  - var(3) + var(69) + var(124) <= -0
constr(180):  - var(4) + var(70) + var(125) <= -0
constr(181):  - var(5) + var(71) + var(126) <= -0
constr(182):  - var(6) + var(72) + var(127) <= -0
constr(183):  - var(7) + var(73) + var(128) <= -0
constr(184):  - var(8) + var(74) + var(129) <= -0
constr(185):  - var(9) + var(75) + var(130) <= -0
constr(186):  - var(10) + var(76) + var(131) <= -0
constr(187):  - var(0) + var(77) + var(121) <= -0
constr(188):  - var(1) + var(78) + var(122) <= -0
constr(189):  - var(2) + var(79) + var(123) <= -0
constr(190):  - var(3) + var(80) + var(124) <= -0
constr(191):  - var(4) + var(81) + var(125) <= -0
constr(192):  - var(5) + var(82) + var(126) <= -0
constr(193):  - var(6) + var(83) + var(127) <= -0
constr(194):  - var(7) + var(84) + var(128) <= -0
constr(195):  - var(8) + var(85) + var(129) <= -0
constr(196):  - var(9) + var(86) + var(130) <= -0
constr(197):  - var(10) + var(87) + var(131) <= -0
constr(198):  - var(0) + var(88) + var(121) <= -0
constr(199):  - var(1) + var(89) + var(122) <= -0
constr(200):  - var(2) + var(90) + var(123) <= -0
constr(201):  - var(3) + var(91) + var(124) <= -0
constr(202):  - var(4) + var(92) + var(125) <= -0
constr(203):  - var(5) + var(93) + var(126) <= -0
constr(204):  - var(6) + var(94) + var(127) <= -0
constr(205):  - var(7) + var(95) + var(128) <= -0
constr(206):  - var(8) + var(96) + var(129) <= -0
constr(207):  - var(9) + var(97) + var(130) <= -0
constr(208):  - var(10) + var(98) + var(131) <= -0
constr(209):  - var(0) + var(99) + var(121) <= -0
constr(210):  - var(1) + var(100) + var(122) <= -0
constr(211):  - var(2) + var(101) + var(123) <= -0
constr(212):  - var(3) + var(102) + var(124) <= -0
constr(213):  - var(4) + var(103) + var(125) <= -0
constr(214):  - var(5) + var(104) + var(126) <= -0
constr(215):  - var(6) + var(105) + var(127) <= -0
constr(216):  - var(7) + var(106) + var(128) <= -0
constr(217):  - var(8) + var(107) + var(129) <= -0
constr(218):  - var(9) + var(108) + var(130) <= -0
constr(219):  - var(10) + var(109) + var(131) <= -0
constr(220):  - var(0) + var(110) + var(121) <= -0
constr(221):  - var(1) + var(111) + var(122) <= -0
constr(222):  - var(2) + var(112) + var(123) <= -0
constr(223):  - var(3) + var(113) + var(124) <= -0
constr(224):  - var(4) + var(114) + var(125) <= -0
constr(225):  - var(5) + var(115) + var(126) <= -0
constr(226):  - var(6) + var(116) + var(127) <= -0
constr(227):  - var(7) + var(117) + var(128) <= -0
constr(228):  - var(8) + var(118) + var(129) <= -0
constr(229):  - var(9) + var(119) + var(130) <= -0
constr(230):  - var(10) + var(120) + var(131) <= -0
constr(231):  - var(0) + var(1) <= -0
constr(232):  - var(1) + var(2) <= -0
constr(233):  - var(2) + var(3) <= -0
constr(234):  - var(3) + var(4) <= -0
constr(235):  - var(4) + var(5) <= -0
constr(236):  - var(5) + var(6) <= -0
constr(237):  - var(6) + var(7) <= -0
constr(238):  - var(7) + var(8) <= -0
constr(239):  - var(8) + var(9) <= -0
constr(240):  - var(9) + var(10) <= -0
constr(241):  -11 var(0) + 5 var(1) + 2 var(2) + var(3) + var(5) + var(10) + var(11) + var(22) + var(33) + var(44)
 + var(55) + var(66) + var(77) + var(88) + var(99) + var(110) + var(121) = -0
constr(242):  -5 var(1) + var(2) + var(3) + var(4) + var(9) + var(12) + var(23) + var(34) + var(45) + var(56)
 + var(67) + var(78) + var(89) + var(100) + var(111) + var(122) = -0
constr(243):  -3 var(2) + var(4) + var(8) + var(13) + var(24) + var(35) + var(46) + var(57) + var(68) + var(79)
 + var(90) + var(101) + var(112) + var(123) = -0
constr(244):  -2 var(3) + var(7) + var(14) + var(25) + var(36) + var(47) + var(58) + var(69) + var(80) + var(91)
 + var(102) + var(113) + var(124) = -0
constr(245):  -2 var(4) + var(6) + var(15) + var(26) + var(37) + var(48) + var(59) + var(70) + var(81) + var(92)
 + var(103) + var(114) + var(125) = -0
constr(246):  - var(5) + var(16) + var(27) + var(38) + var(49) + var(60) + var(71) + var(82) + var(93) + var(104)
 + var(115) + var(126) = -0
constr(247):  - var(6) + var(17) + var(28) + var(39) + var(50) + var(61) + var(72) + var(83) + var(94) + var(105)
 + var(116) + var(127) = -0
constr(248):  - var(7) + var(18) + var(29) + var(40) + var(51) + var(62) + var(73) + var(84) + var(95) + var(106)
 + var(117) + var(128) = -0
constr(249):  - var(8) + var(19) + var(30) + var(41) + var(52) + var(63) + var(74) + var(85) + var(96) + var(107)
 + var(118) + var(129) = -0
constr(250):  - var(9) + var(20) + var(31) + var(42) + var(53) + var(64) + var(75) + var(86) + var(97) + var(108)
 + var(119) + var(130) = -0
Bounds
 0 <= var(0) <= 1
 0 <= var(1) <= 1
 0 <= var(2) <= 1
 0 <= var(3) <= 1
 0 <= var(4) <= 1
 0 <= var(5) <= 1
 0 <= var(6) <= 1
 0 <= var(7) <= 1
 0 <= var(8) <= 1
 0 <= var(9) <= 1
 0 <= var(10) <= 1
 0 <= var(11) <= 1
 0 <= var(12) <= 1
 0 <= var(13) <= 1
 0 <= var(14) <= 1
 0 <= var(15) <= 1
 0 <= var(16) <= 1
 0 <= var(17) <= 1
 0 <= var(18) <= 1
 0 <= var(19) <= 1
 0 <= var(20) <= 1
 0 <= var(21) <= 1
 0 <= var(22) <= 1
 0 <= var(23) <= 1
 0 <= var(24) <= 1
 0 <= var(25) <= 1
 0 <= var(26) <= 1
 0 <= var(27) <= 1
 0 <= var(28) <= 1
 0 <= var(29) <= 1
 0 <= var(30) <= 1
 0 <= var(31) <= 1
 0 <= var(32) <= 1
 0 <= var(33) <= 1
 0 <= var(34) <= 1
 0 <= var(35) <= 1
 0 <= var(36) <= 1
 0 <= var(37) <= 1
 0 <= var(38) <= 1
 0 <= var(39) <= 1
 0 <= var(40) <= 1
 0 <= var(41) <= 1
 0 <= var(42) <= 1
 0 <= var(43) <= 1
 0 <= var(44) <= 1
 0 <= var(45) <= 1
 0 <= var(46) <= 1
 0 <= var(47) <= 1
 0 <= var(48) <= 1
 0 <= var(49) <= 1
 0 <= var(50) <= 1
 0 <= var(51) <= 1
 0 <= var(52) <= 1
 0 <= var(53) <= 1
 0 <= var(54) <= 1
 0 <= var(55) <= 1
 0 <= var(56) <= 1
 0 <= var(57) <= 1
 0 <= var(58) <= 1
 0 <= var(59) <= 1
 0 <= var(60) <= 1
 0 <= var(61) <= 1
 0 <= var(62) <= 1
 0 <= var(63) <= 1
 0 <= var(64) <= 1
 0 <= var(65) <= 1
 0 <= var(66) <= 1
 0 <= var(67) <= 1
 0 <= var(68) <= 1
 0 <= var(69) <= 1
 0 <= var(70) <= 1
 0 <= var(71) <= 1
 0 <= var(72) <= 1
 0 <= var(73) <= 1
 0 <= var(74) <= 1
 0 <= var(75) <= 1
 0 <= var(76) <= 1
 0 <= var(77) <= 1
 0 <= var(78) <= 1
 0 <= var(79) <= 1
 0 <= var(80) <= 1
 0 <= var(81) <= 1
 0 <= var(82) <= 1
 0 <= var(83) <= 1
 0 <= var(84) <= 1
 0 <= var(85) <= 1
 0 <= var(86) <= 1
 0 <= var(87) <= 1
 0 <= var(88) <= 1
 0 <= var(89) <= 1
 0 <= var(90) <= 1
 0 <= var(91) <= 1
 0 <= var(92) <= 1
 0 <= var(93) <= 1
 0 <= var(94) <= 1
 0 <= var(95) <= 1
 0 <= var(96) <= 1
 0 <= var(97) <= 1
 0 <= var(98) <= 1
 0 <= var(99) <= 1
 0 <= var(100) <= 1
 0 <= var(101) <= 1
 0 <= var(102) <= 1
 0 <= var(103) <= 1
 0 <= var(104) <= 1
 0 <= var(105) <= 1
 0 <= var(106) <= 1
 0 <= var(107) <= 1
 0 <= var(108) <= 1
 0 <= var(109) <= 1
 0 <= var(110) <= 1
 0 <= var(111) <= 1
 0 <= var(112) <= 1
 0 <= var(113) <= 1
 0 <= var(114) <= 1
 0 <= var(115) <= 1
 0 <= var(116) <= 1
 0 <= var(117) <= 1
 0 <= var(118) <= 1
 0 <= var(119) <= 1
 0 <= var(120) <= 1
 0 <= var(121) <= 1
 0 <= var(122) <= 1
 0 <= var(123) <= 1
 0 <= var(124) <= 1
 0 <= var(125) <= 1
 0 <= var(126) <= 1
 0 <= var(127) <= 1
 0 <= var(128) <= 1
 0 <= var(129) <= 1
 0 <= var(130) <= 1
 0 <= var(131) <= 1
Integers
var(0) var(1) var(2) var(3) var(4) var(5) var(6) var(7) var(8) var(9) 
var(10) var(11) var(12) var(13) var(14) var(15) var(16) var(17) var(18) var(19) 
var(20) var(21) var(22) var(23) var(24) var(25) var(26) var(27) var(28) var(29) 
var(30) var(31) var(32) var(33) var(34) var(35) var(36) var(37) var(38) var(39) 
var(40) var(41) var(42) var(43) var(44) var(45) var(46) var(47) var(48) var(49) 
var(50) var(51) var(52) var(53) var(54) var(55) var(56) var(57) var(58) var(59) 
var(60) var(61) var(62) var(63) var(64) var(65) var(66) var(67) var(68) var(69) 
var(70) var(71) var(72) var(73) var(74) var(75) var(76) var(77) var(78) var(79) 
var(80) var(81) var(82) var(83) var(84) var(85) var(86) var(87) var(88) var(89) 
var(90) var(91) var(92) var(93) var(94) var(95) var(96) var(97) var(98) var(99) 
var(100) var(101) var(102) var(103) var(104) var(105) var(106) var(107) var(108) var(109) 
var(110) var(111) var(112) var(113) var(114) var(115) var(116) var(117) var(118) var(119) 
var(120) var(121) var(122) var(123) var(124) var(125) var(126) var(127) var(128) var(129) 
var(130) var(131) 
End
